webassembly/ejemplos_results/5/folder5_json_31.txt
value = 5;
fgas = [1, 1, 1, 1, 1];
fsize = [1, 1, 1, 1, 1];
states = 
[|    in_0,   in_1, in_2, in_3, '.', '.', '.', '.', '.'
 |    in_0,   in_1,  '.',  '.', '.', '.', '.', '.', '.'
 |    in_2,   in_3,  '.',  '.', '.', '.', '.', '.', '.'
 |  's(0)',   in_0,  '.',  '.', '.', '.', '.', '.', '.'
 | local_0, 's(0)', in_0,  '.', '.', '.', '.', '.', '.'
 | local_0,    '.',  '.',  '.', '.', '.', '.', '.', '.'
 |];
register_states = 
[| '.', '.', '.'
 | '.', '.', '.'
 | '.', '.', '.'
 | '.', '.', '.'
 | '.', '.', '.'
 | '.', '.', '.'
 |];
program = [O('i32.store8_0'), O('i32.store8_0'), O('call[function_index(0)]_1'), O('local.get_0'), O('i32.store_3')];
% time elapsed: 0.08 s
----------
value = 4;
fgas = [1, 1, 1, 1, 0];
fsize = [1, 1, 1, 1, 1];
states = 
[|    in_0,   in_1, in_2, in_3, '.', '.', '.', '.', '.'
 |    in_2,   in_3,  '.',  '.', '.', '.', '.', '.', '.'
 |  's(0)',   in_0,  '.',  '.', '.', '.', '.', '.', '.'
 | local_0, 's(0)', in_0,  '.', '.', '.', '.', '.', '.'
 | local_0,    '.',  '.',  '.', '.', '.', '.', '.', '.'
 | local_0,    '.',  '.',  '.', '.', '.', '.', '.', '.'
 |];
register_states = 
[| '.', '.', '.'
 | '.', '.', '.'
 | '.', '.', '.'
 | '.', '.', '.'
 | '.', '.', '.'
 | '.', '.', '.'
 |];
program = [O('i32.store8_0'), O('call[function_index(0)]_1'), O('local.get_0'), O('i32.store_3'), NOP];
% time elapsed: 0.08 s
----------
==========
% time elapsed: 0.08 s
% [value > 3]
